(set-info :smt-lib-version 2.6)
(set-logic LRA)
(set-info :source |
   Monniaux, David; Quantifier Elimination by Lazy Model Enumeration, CAV 2010
|)
(set-info :category "random")
; ./Mjollnir_examples/B6/formula_115.m
(set-info :status sat)
(assert
 (forall ((|v17:0| Real) )(forall ((|v16:1| Real) )(forall ((|v15:2| Real) )(forall ((|v14:3| Real) )(forall ((|v13:4| Real) )(forall ((|v12:5| Real) )(exists ((|v11:6| Real) )(exists ((|v10:7| Real) )(exists ((|v9:8| Real) )(exists ((|v8:9| Real) )(exists ((|v7:10| Real) )(exists ((|v6:11| Real) )(forall ((|v5:12| Real) )(forall ((|v4:13| Real) )(forall ((|v3:14| Real) )(forall ((|v2:15| Real) )(forall ((|v1:16| Real) )(forall ((|v0:17| Real) )(let ((?x45 9))
(let ((?x46 (* ?x45 |v11:6|)))
(let ((?x71 5))
(let ((?x544 (* ?x71 |v11:6|)))
(let ((?x699 (+ (+ (* (- 18) |v6:11|) (* 7 |v12:5|)) (* ?x71 |v16:1|))))
(let ((?x705 (+ (+ (+ (+ ?x699 ?x544) (* 4 |v9:8|)) ?x46) (* (- 1) |v15:2|))))
(let ((?x135 (- 18)))
(let ((?x13 11))
(let ((?x396 (* ?x13 |v5:12|)))
(let ((?x222 (- 3)))
(let ((?x591 (* ?x222 |v7:10|)))
(let ((?x682 (+ (+ (+ (* (- 2) |v4:13|) (* 8 |v11:6|)) ?x591) ?x396)))
(let ((?x688 (+ (+ (+ ?x682 (* 3 |v10:7|)) (* 20 |v14:3|)) (* 17 |v2:15|))))
(let ((?x85 (- 7)))
(let ((?x665 (* ?x85 |v9:8|)))
(let ((?x35 10))
(let ((?x478 (* ?x35 |v1:16|)))
(let ((?x671 (+ (+ (* ?x35 |v15:2|) (* (- 2) |v2:15|)) (* (- 19) |v14:3|))))
(let (($x677 (<= (+ (+ (+ (+ ?x671 (* (- 2) |v10:7|)) ?x478) ?x665) ?x396) ?x45)))
(let ((?x78 (* 8 |v2:15|)))
(let ((?x659 (+ (+ (* (- 16) |v11:6|) (* ?x71 |v3:14|)) (* 12 |v8:9|))))
(let ((?x666 (+ (+ (+ (+ ?x659 ?x78) (* (- 17) |v17:0|)) (* ?x45 |v10:7|)) ?x665)))
(let ((?x201 19))
(let ((?x160 (- 12)))
(let ((?x297 (* ?x160 |v12:5|)))
(let ((?x126 (- 19)))
(let ((?x355 (* ?x126 |v6:11|)))
(let ((?x164 (- 20)))
(let ((?x229 (* ?x164 |v8:9|)))
(let ((?x61 (- 16)))
(let ((?x65 (* ?x61 |v6:11|)))
(let ((?x650 (+ (+ (+ (* (- 6) |v17:0|) (* 7 |v17:0|)) ?x65) ?x229)))
(let ((?x195 (- 17)))
(let ((?x575 (* ?x135 |v16:1|)))
(let ((?x93 (- 15)))
(let ((?x617 (* ?x93 |v14:3|)))
(let ((?x641 (+ (+ (+ (+ (* 12 |v6:11|) (* ?x201 |v16:1|)) ?x617) |v12:5|) (* 3 |v5:12|))))
(let ((?x96 (- 1)))
(let ((?x530 (* ?x195 |v13:4|)))
(let ((?x89 14))
(let ((?x90 (* ?x89 |v13:4|)))
(let ((?x210 (* ?x61 |v15:2|)))
(let ((?x630 (+ (+ (+ (* 15 |v0:17|) (* ?x160 |v17:0|)) (* ?x195 |v15:2|)) ?x210)))
(let (($x646 (or (<= (+ (+ (+ ?x630 (* (- 14) |v12:5|)) ?x90) ?x530) ?x96) (<= (+ (+ ?x641 (* (- 11) |v8:9|)) ?x575) ?x195))))
(let (($x691 (and (or $x646 (<= (+ (+ (+ ?x650 ?x355) (* ?x164 |v3:14|)) ?x297) ?x201)) (and (or (<= ?x666 ?x222) $x677) (<= ?x688 ?x135)))))
(let ((?x618 (+ (+ (+ (* (- 10) |v8:9|) (* 12 |v6:11|)) |v14:3|) ?x617)))
(let (($x624 (<= (+ (+ (+ ?x618 (* ?x89 |v6:11|)) (* (- 14) |v17:0|)) ?x297) ?x96)))
(let ((?x216 18))
(let ((?x611 (* 8 |v11:6|)))
(let ((?x607 (* ?x71 |v3:14|)))
(let ((?x604 (+ (+ (* (- 9) |v5:12|) (* 4 |v14:3|)) (* (- 11) |v15:2|))))
(let (($x613 (<= (+ (+ (+ (+ ?x604 (* ?x222 |v10:7|)) ?x607) (* ?x126 |v11:6|)) ?x611) ?x216)))
(let ((?x180 20))
(let ((?x257 (* ?x35 |v11:6|)))
(let ((?x592 (+ (+ (+ (* 16 |v15:2|) (* 15 |v8:9|)) ?x257) ?x591)))
(let ((?x598 (+ (+ (+ ?x592 (* ?x93 |v15:2|)) (* 0 |v6:11|)) (* 3 |v2:15|))))
(let ((?x184 4))
(let ((?x580 (+ (+ (+ (* ?x201 |v11:6|) ?x575) (* (- 5) |v15:2|)) (* ?x222 |v4:13|))))
(let ((?x586 (+ (+ (+ ?x580 (* ?x61 |v12:5|)) (* ?x35 |v16:1|)) (* (- 6) |v9:8|))))
(let ((?x81 6))
(let ((?x101 (- 9)))
(let ((?x102 (* ?x101 |v5:12|)))
(let ((?x565 (+ (+ (+ (* ?x85 |v14:3|) (* ?x164 |v11:6|)) (* ?x216 |v5:12|)) (* 13 |v5:12|))))
(let ((?x341 (* ?x89 |v14:3|)))
(let ((?x553 (+ (+ (+ (+ (* 13 |v0:17|) (* ?x13 |v16:1|)) |v12:5|) ?x341) (* (- 14) |v9:8|))))
(let (($x572 (or (<= (+ (+ ?x553 (* ?x85 |v2:15|)) (* (- 5) |v16:1|)) ?x135) (<= (+ (+ (+ ?x565 (* ?x61 |v4:13|)) (* ?x201 |v2:15|)) ?x102) ?x81))))
(let ((?x309 (* ?x222 |v16:1|)))
(let ((?x472 (* ?x160 |v7:10|)))
(let ((?x540 (+ (+ (* 15 |v10:7|) (* ?x126 |v15:2|)) (* 15 |v5:12|))))
(let ((?x324 (* ?x201 |v1:16|)))
(let ((?x131 16))
(let ((?x528 (* ?x131 |v15:2|)))
(let ((?x526 (* ?x195 |v15:2|)))
(let ((?x529 (+ (+ (+ (* (- 13) |v3:14|) (* (- 8) |v9:8|)) ?x526) ?x528)))
(let (($x548 (and (<= (+ (+ (+ ?x529 ?x530) ?x324) (* 0 |v0:17|)) ?x135) (<= (+ (+ (+ (+ ?x540 (* ?x201 |v12:5|)) ?x472) ?x544) ?x309) ?x71))))
(let (($x627 (or (and $x548 $x572) (or (and (<= ?x586 ?x184) (<= ?x598 ?x180)) (and $x613 $x624)))))
(let ((?x127 (* ?x126 |v16:1|)))
(let ((?x241 (- 8)))
(let ((?x256 (* ?x241 |v3:14|)))
(let ((?x517 (+ (+ (+ (+ (* ?x184 |v12:5|) (* ?x126 |v8:9|)) (* ?x241 |v2:15|)) ?x256) ?x127)))
(let (($x693 (and (<= (+ (+ ?x517 (* ?x85 |v0:17|)) (* 17 |v15:2|)) ?x222) (and $x627 $x691))))
(let ((?x18 (- 6)))
(let ((?x53 13))
(let ((?x410 (* ?x53 |v0:17|)))
(let ((?x499 (+ (+ (+ (* 17 |v3:14|) (* ?x61 |v13:4|)) ?x472) (* (- 4) |v6:11|))))
(let ((?x30 7))
(let ((?x489 (+ (+ (+ (+ (* ?x135 |v4:13|) ?x102) (* ?x71 |v4:13|)) (* ?x18 |v15:2|)) (* ?x222 |v0:17|))))
(let (($x506 (and (<= (+ (+ ?x489 (* ?x241 |v12:5|)) (* ?x18 |v12:5|)) ?x30) (<= (+ (+ (+ ?x499 (* ?x180 |v17:0|)) ?x410) (* ?x180 |v15:2|)) ?x18))))
(let ((?x429 (* ?x61 |v11:6|)))
(let ((?x477 (+ (+ (+ (+ (* ?x160 |v10:7|) (* ?x18 |v15:2|)) ?x472) (* ?x180 |v1:16|)) (* 0 |v4:13|))))
(let ((?x154 (- 14)))
(let ((?x462 (+ (+ (+ (* ?x101 |v10:7|) (* ?x154 |v10:7|)) (* (- 2) |v3:14|)) (* ?x13 |v10:7|))))
(let ((?x468 (+ (+ (+ ?x462 (* ?x71 |v0:17|)) (* 2 |v0:17|)) (* 2 |v7:10|))))
(let ((?x450 (+ (+ (+ (+ (* ?x18 |v16:1|) (* ?x216 |v15:2|)) (* ?x96 |v10:7|)) ?x324) (* 3 |v4:13|))))
(let (($x508 (or (<= (+ (+ ?x450 (* (- 11) |v12:5|)) (* ?x241 |v7:10|)) ?x30) (and (and (<= ?x468 ?x154) (<= (+ (+ ?x477 ?x478) ?x429) ?x195)) $x506))))
(let ((?x321 (* ?x35 |v15:2|)))
(let ((?x434 (+ (+ (+ (* 0 |v1:16|) ?x429) (* (- 5) |v6:11|)) (* ?x85 |v7:10|))))
(let (($x439 (<= (+ (+ (+ ?x434 (* 2 |v15:2|)) ?x321) (* ?x160 |v4:13|)) ?x101)))
(let ((?x176 15))
(let ((?x420 (+ (+ (+ (* ?x201 |v17:0|) (* ?x180 |v3:14|)) (* ?x53 |v12:5|)) (* ?x164 |v13:4|))))
(let ((?x426 (+ (+ (+ ?x420 (* ?x45 |v1:16|)) (* 17 |v10:7|)) (* ?x201 |v13:4|))))
(let ((?x406 (+ (+ (+ (* ?x135 |v14:3|) (* 2 |v4:13|)) (* ?x18 |v12:5|)) (* ?x131 |v0:17|))))
(let ((?x394 (+ (+ (+ (* ?x184 |v1:16|) (* (- 10) |v15:2|)) (* ?x160 |v11:6|)) (* ?x81 |v1:16|))))
(let (($x413 (or (<= (+ (+ (+ ?x394 (* ?x81 |v1:16|)) ?x396) (* ?x18 |v8:9|)) ?x135) (<= (+ (+ (+ ?x406 (* ?x180 |v4:13|)) (* ?x180 |v12:5|)) ?x410) ?x30))))
(let ((?x378 (* ?x176 |v0:17|)))
(let ((?x381 (+ (+ (+ (+ (* ?x184 |v5:12|) (* ?x35 |v4:13|)) (* ?x85 |v1:16|)) ?x378) (* ?x176 |v11:6|))))
(let ((?x364 (+ (+ (* ?x61 |v5:12|) (* (- 10) |v6:11|)) (* (- 2) |v11:6|))))
(let ((?x371 (+ (+ (+ (+ ?x364 (* ?x180 |v4:13|)) ?x324) (* ?x135 |v3:14|)) (* ?x195 |v5:12|))))
(let (($x386 (or (<= ?x371 ?x195) (<= (+ (+ ?x381 (* ?x53 |v4:13|)) (* ?x131 |v13:4|)) ?x93))))
(let ((?x204 0))
(let ((?x352 (+ (+ (+ (* ?x93 |v8:9|) (* ?x30 |v14:3|)) (* ?x164 |v16:1|)) (* ?x71 |v6:11|))))
(let (($x359 (<= (+ (+ (+ ?x352 (* ?x93 |v11:6|)) ?x355) (* (- 13) |v14:3|)) ?x204)))
(let ((?x338 (+ (+ (+ |v11:6| (* ?x53 |v13:4|)) (* (- 4) |v10:7|)) (* 12 |v17:0|))))
(let (($x360 (and (<= (+ (+ (+ ?x338 (* ?x18 |v14:3|)) ?x341) (* ?x164 |v17:0|)) ?x85) $x359)))
(let ((?x323 (+ (+ (+ (+ (* ?x160 |v10:7|) (* ?x45 |v5:12|)) (* ?x154 |v13:4|)) ?x321) |v7:10|)))
(let ((?x42 3))
(let ((?x308 (+ (+ (+ (* ?x160 |v17:0|) (* ?x180 |v5:12|)) (* ?x164 |v14:3|)) (* ?x216 |v2:15|))))
(let (($x329 (or (<= (+ (+ (+ ?x308 ?x309) (* ?x81 |v9:8|)) (* ?x53 |v4:13|)) ?x42) (<= (+ (+ ?x323 ?x324) (* (- 10) |v13:4|)) ?x13))))
(let ((?x50 (- 4)))
(let ((?x294 (+ (+ (+ (* ?x160 |v1:16|) (* ?x89 |v9:8|)) (* ?x101 |v15:2|)) (* ?x81 |v16:1|))))
(let ((?x150 17))
(let ((?x284 12))
(let ((?x285 (* ?x284 |v6:11|)))
(let ((?x279 (+ (+ (+ (* (- 2) |v12:5|) (* ?x160 |v16:1|)) (* ?x13 |v4:13|)) (* (- 5) |v13:4|))))
(let (($x301 (or (<= (+ (+ (+ ?x279 (* ?x204 |v2:15|)) |v4:13|) ?x285) ?x150) (<= (+ (+ (+ ?x294 (* ?x13 |v8:9|)) ?x297) ?x90) ?x50))))
(let ((?x263 (+ (+ (+ (+ ?x256 ?x257) (* ?x13 |v1:16|)) (* ?x150 |v1:16|)) (* ?x18 |v5:12|))))
(let ((?x250 (+ (+ (+ (+ (* ?x71 |v15:2|) ?x127) (* ?x89 |v11:6|)) (* ?x85 |v8:9|)) (* ?x45 |v14:3|))))
(let (($x271 (and (<= (+ (+ ?x250 (* ?x195 |v2:15|)) (* ?x222 |v5:12|)) ?x71) (<= (+ (+ ?x263 (* (- 5) |v10:7|)) (* ?x164 |v7:10|)) ?x154))))
(let ((?x26 (* ?x13 |v16:1|)))
(let ((?x237 (+ (+ (+ (+ ?x229 (* ?x195 |v3:14|)) (* ?x154 |v14:3|)) (* ?x216 |v4:13|)) (* ?x101 |v13:4|))))
(let ((?x220 (+ (+ (+ (+ (* ?x18 |v17:0|) ?x210) (* ?x35 |v8:9|)) (* ?x216 |v13:4|)) (* ?x195 |v11:6|))))
(let (($x243 (or (<= (+ (+ ?x220 (* ?x222 |v15:2|)) (* ?x135 |v14:3|)) ?x96) (<= (+ (+ ?x237 (* (- 2) |v0:17|)) ?x26) ?x241))))
(let ((?x193 (+ (+ (+ (* ?x96 |v5:12|) (* ?x35 |v2:15|)) (* (- 2) |v17:0|)) (* ?x135 |v2:15|))))
(let (($x205 (<= (+ (+ (+ ?x193 (* ?x195 |v12:5|)) (* ?x85 |v13:4|)) (* ?x201 |v5:12|)) ?x204)))
(let ((?x174 (+ (+ (+ (* ?x45 |v4:13|) (* ?x160 |v9:8|)) (* 2 |v5:12|)) (* ?x13 |v14:3|))))
(let (($x185 (<= (+ (+ (+ ?x174 (* ?x176 |v9:8|)) (* ?x180 |v2:15|)) (* ?x13 |v14:3|)) ?x184)))
(let ((?x158 (+ (+ (+ (+ |v7:10| (* ?x61 |v14:3|)) (* ?x150 |v1:16|)) (* ?x154 |v11:6|)) (* 2 |v12:5|))))
(let ((?x133 (+ (+ (+ (* (- 11) |v17:0|) (* ?x71 |v15:2|)) ?x127) (* ?x131 |v10:7|))))
(let ((?x142 (+ (+ (+ ?x133 (* ?x135 |v15:2|)) (* 2 |v11:6|)) (* ?x135 |v12:5|))))
(let (($x207 (or (and (<= ?x142 ?x30) (<= (+ (+ ?x158 (* ?x160 |v4:13|)) |v3:14|) ?x164)) (or $x185 $x205))))
(let ((?x118 2))
(let ((?x109 (+ (+ (+ (* ?x30 |v4:13|) ?x102) (* (- 10) |v11:6|)) (* (- 11) |v9:8|))))
(let ((?x117 (+ (+ (+ ?x109 (* ?x61 |v3:14|)) (* (- 10) |v9:8|)) (* (- 2) |v11:6|))))
(let ((?x87 (+ (+ (+ (+ (* ?x71 |v2:15|) (* ?x50 |v13:4|)) ?x78) (* ?x81 |v3:14|)) (* ?x85 |v17:0|))))
(let ((?x58 (+ (+ (+ (+ (* ?x42 |v14:3|) ?x46) (* ?x50 |v3:14|)) (* ?x53 |v3:14|)) (* (- 13) |v17:0|))))
(let ((?x9 (- 10)))
(let ((?x25 (+ (+ (+ (* ?x9 |v16:1|) (* ?x13 |v11:6|)) (* ?x18 |v0:17|)) (* (- 13) |v15:2|))))
(let (($x68 (or (<= (+ (+ (+ ?x25 ?x26) (* ?x30 |v4:13|)) (* ?x35 |v9:8|)) ?x9) (<= (+ (+ ?x58 (* ?x61 |v2:15|)) ?x65) ?x53))))
(let (($x121 (and $x68 (and (<= (+ (+ ?x87 ?x90) (* ?x93 |v0:17|)) ?x96) (<= ?x117 ?x118)))))
(let (($x510 (and (and (or $x121 $x207) (or (or $x243 $x271) (or $x301 $x329))) (or (and (and $x360 $x386) (or $x413 (and (<= ?x426 ?x176) $x439))) $x508))))
(or (and $x510 $x693) (<= ?x705 ?x45)))))))))))))))))))))))))))))))))))))))))))))))))))))))))))))))))))))))))))))))))))))))))))))))))))))))))))))))))))))))))))))))))))))))))))))))))))))))))
)
)
)
)
)
)
)
)
)
)
)
)
)
)
)
)
)
)
(check-sat)
(exit)

